CKP/CKP_n50_Instance_2.lp
\ENCODING=ISO-8859-1
\Problem name: CKP

Maximize
 obj: x1 + x2 + x3 + x4 + x5 + x6 + x7 + x8 + x9 + x10 + x11 + x12 + x13 + x14
      + x15 + x16 + x17 + x18 + x19 + x20 + x21 + x22 + x23 + x24 + x25 + x26
      + x27 + x28 + x29 + x30 + x31 + x32 + x33 + x34 + x35 + x36 + x37 + x38
      + x39 + x40 + x41 + x42 + x43 + x44 + x45 + x46 + x47 + x48 + x49 + x50
Subject To
 c1: 12251 x1 + 12252 x2 + 12253 x3 + 12287 x4 + 12288 x5 + 12289 x6 + 12323 x7
     + 12324 x8 + 12325 x9 + 12830 x10 + 12831 x11 + 12832 x12 + 12866 x13
     + 12867 x14 + 12868 x15 + 12902 x16 + 12903 x17 + 12904 x18 + 13409 x19
     + 13410 x20 + 13411 x21 + 13445 x22 + 13446 x23 + 12251 x24 + 12253 x25
     + 12287 x26 + 12288 x27 + 12323 x28 + 12324 x29 + 12830 x30 + 12832 x31
     + 12867 x32 + 12868 x33 + 12902 x34 + 12903 x35 + 12904 x36 + 13409 x37
     + 13410 x38 + 13411 x39 + 13445 x40 + 13446 x41 + 13447 x42 + 13481 x43
     + 13482 x44 + 23888 x45 + 23889 x46 + 23890 x47 + 23925 x48 + 23926 x49
     + 24467 x50 >= 367732
 c2: 12251 x1 + 12252 x2 + 12253 x3 + 12287 x4 + 12288 x5 + 12289 x6 + 12323 x7
     + 12324 x8 + 12325 x9 + 12830 x10 + 12831 x11 + 12832 x12 + 12866 x13
     + 12867 x14 + 12868 x15 + 12902 x16 + 12903 x17 + 12904 x18 + 13409 x19
     + 13410 x20 + 13411 x21 + 13445 x22 + 13446 x23 + 12251 x24 + 12253 x25
     + 12287 x26 + 12288 x27 + 12323 x28 + 12324 x29 + 12830 x30 + 12832 x31
     + 12867 x32 + 12868 x33 + 12902 x34 + 12903 x35 + 12904 x36 + 13409 x37
     + 13410 x38 + 13411 x39 + 13445 x40 + 13446 x41 + 13447 x42 + 13481 x43
     + 13482 x44 + 23888 x45 + 23889 x46 + 23890 x47 + 23925 x48 + 23926 x49
     + 24467 x50 <= 367733
Bounds
 0 <= x1 <= 1
 0 <= x2 <= 1
 0 <= x3 <= 1
 0 <= x4 <= 1
 0 <= x5 <= 1
 0 <= x6 <= 1
 0 <= x7 <= 1
 0 <= x8 <= 1
 0 <= x9 <= 1
 0 <= x10 <= 1
 0 <= x11 <= 1
 0 <= x12 <= 1
 0 <= x13 <= 1
 0 <= x14 <= 1
 0 <= x15 <= 1
 0 <= x16 <= 1
 0 <= x17 <= 1
 0 <= x18 <= 1
 0 <= x19 <= 1
 0 <= x20 <= 1
 0 <= x21 <= 1
 0 <= x22 <= 1
 0 <= x23 <= 1
 0 <= x24 <= 1
 0 <= x25 <= 1
 0 <= x26 <= 1
 0 <= x27 <= 1
 0 <= x28 <= 1
 0 <= x29 <= 1
 0 <= x30 <= 1
 0 <= x31 <= 1
 0 <= x32 <= 1
 0 <= x33 <= 1
 0 <= x34 <= 1
 0 <= x35 <= 1
 0 <= x36 <= 1
 0 <= x37 <= 1
 0 <= x38 <= 1
 0 <= x39 <= 1
 0 <= x40 <= 1
 0 <= x41 <= 1
 0 <= x42 <= 1
 0 <= x43 <= 1
 0 <= x44 <= 1
 0 <= x45 <= 1
 0 <= x46 <= 1
 0 <= x47 <= 1
 0 <= x48 <= 1
 0 <= x49 <= 1
 0 <= x50 <= 1
Binaries
 x1  x2  x3  x4  x5  x6  x7  x8  x9  x10  x11  x12  x13  x14  x15  x16  x17 
 x18  x19  x20  x21  x22  x23  x24  x25  x26  x27  x28  x29  x30  x31  x32 
 x33  x34  x35  x36  x37  x38  x39  x40  x41  x42  x43  x44  x45  x46  x47 
 x48  x49  x50 
End
