CKP/CKP_n50_Instance_2.lp.txt
\ENCODING=ISO-8859-1
\Problem name: CKP

Maximize
 obj: x1 + x2 + x3 + x4 + x5 + x6 + x7 + x8 + x9 + x10 + x11 + x12 + x13 + x14
      + x15 + x16 + x17 + x18 + x19 + x20 + x21 + x22 + x23 + x24 + x25 + x26
      + x27 + x28 + x29 + x30 + x31 + x32 + x33 + x34 + x35 + x36 + x37 + x38
      + x39 + x40 + x41 + x42 + x43 + x44 + x45 + x46 + x47 + x48 + x49 + x50
Subject To
 c1: 14064 x1 + 14065 x2 + 14066 x3 + 14099 x4 + 14100 x5 + 14101 x6 + 14134 x7
     + 14135 x8 + 14136 x9 + 14696 x10 + 14697 x11 + 14698 x12 + 14731 x13
     + 14732 x14 + 14733 x15 + 14766 x16 + 14767 x17 + 14768 x18 + 15328 x19
     + 15329 x20 + 15330 x21 + 15363 x22 + 15364 x23 + 14064 x24 + 14065 x25
     + 14101 x26 + 14135 x27 + 14136 x28 + 14697 x29 + 14698 x30 + 14732 x31
     + 14733 x32 + 14766 x33 + 14767 x34 + 14768 x35 + 15328 x36 + 15330 x37
     + 15363 x38 + 15364 x39 + 15365 x40 + 15399 x41 + 15400 x42 + 27462 x43
     + 27463 x44 + 27464 x45 + 27497 x46 + 27532 x47 + 27533 x48 + 27534 x49
     + 28095 x50 >= 390620
 c2: 14064 x1 + 14065 x2 + 14066 x3 + 14099 x4 + 14100 x5 + 14101 x6 + 14134 x7
     + 14135 x8 + 14136 x9 + 14696 x10 + 14697 x11 + 14698 x12 + 14731 x13
     + 14732 x14 + 14733 x15 + 14766 x16 + 14767 x17 + 14768 x18 + 15328 x19
     + 15329 x20 + 15330 x21 + 15363 x22 + 15364 x23 + 14064 x24 + 14065 x25
     + 14101 x26 + 14135 x27 + 14136 x28 + 14697 x29 + 14698 x30 + 14732 x31
     + 14733 x32 + 14766 x33 + 14767 x34 + 14768 x35 + 15328 x36 + 15330 x37
     + 15363 x38 + 15364 x39 + 15365 x40 + 15399 x41 + 15400 x42 + 27462 x43
     + 27463 x44 + 27464 x45 + 27497 x46 + 27532 x47 + 27533 x48 + 27534 x49
     + 28095 x50 <= 390621
Bounds
 0 <= x1 <= 1
 0 <= x2 <= 1
 0 <= x3 <= 1
 0 <= x4 <= 1
 0 <= x5 <= 1
 0 <= x6 <= 1
 0 <= x7 <= 1
 0 <= x8 <= 1
 0 <= x9 <= 1
 0 <= x10 <= 1
 0 <= x11 <= 1
 0 <= x12 <= 1
 0 <= x13 <= 1
 0 <= x14 <= 1
 0 <= x15 <= 1
 0 <= x16 <= 1
 0 <= x17 <= 1
 0 <= x18 <= 1
 0 <= x19 <= 1
 0 <= x20 <= 1
 0 <= x21 <= 1
 0 <= x22 <= 1
 0 <= x23 <= 1
 0 <= x24 <= 1
 0 <= x25 <= 1
 0 <= x26 <= 1
 0 <= x27 <= 1
 0 <= x28 <= 1
 0 <= x29 <= 1
 0 <= x30 <= 1
 0 <= x31 <= 1
 0 <= x32 <= 1
 0 <= x33 <= 1
 0 <= x34 <= 1
 0 <= x35 <= 1
 0 <= x36 <= 1
 0 <= x37 <= 1
 0 <= x38 <= 1
 0 <= x39 <= 1
 0 <= x40 <= 1
 0 <= x41 <= 1
 0 <= x42 <= 1
 0 <= x43 <= 1
 0 <= x44 <= 1
 0 <= x45 <= 1
 0 <= x46 <= 1
 0 <= x47 <= 1
 0 <= x48 <= 1
 0 <= x49 <= 1
 0 <= x50 <= 1
Binaries
 x1  x2  x3  x4  x5  x6  x7  x8  x9  x10  x11  x12  x13  x14  x15  x16  x17 
 x18  x19  x20  x21  x22  x23  x24  x25  x26  x27  x28  x29  x30  x31  x32 
 x33  x34  x35  x36  x37  x38  x39  x40  x41  x42  x43  x44  x45  x46  x47 
 x48  x49  x50 
End
